423
2
139, 382, 247, 325, 310, 403, 199, 244, 184, 10, 226, 79, 97, 280, 76, 208, 37, 337, 190, 403, 370, 379, 211, 388, 196, 157, 262
271, 79, 37, 238, 295, 250, 388, 151, 343, 310, 382, 58, 121, 400, 289, 190, 169, 265, 397, 370, 85, 145, 82, 403, 4, 154, 262
2, 2, 2, 1, 1, 1, 2, 2, 2, 1, 1, 2, 1, 1, 2, 1, 2, 1, 2, 1, 1, 2, 2, 2, 1, 2, 1
